certificates/rado_a9_c30_N18.cnf
c Rad2 upper bound instance: x1 + 9*x2 - x3 = 30, interval [1,18]
p cnf 18 70
1 4 7 0
-1 -4 -7 0
1 5 16 0
-1 -5 -16 0
2 4 8 0
-2 -4 -8 0
2 5 17 0
-2 -5 -17 0
3 4 9 0
-3 -4 -9 0
3 5 18 0
-3 -5 -18 0
1 3 4 0
-1 -3 -4 0
4 10 0
-4 -10 0
2 3 5 0
-2 -3 -5 0
4 5 11 0
-4 -5 -11 0
3 6 0
-3 -6 0
4 6 12 0
-4 -6 -12 0
3 4 7 0
-3 -4 -7 0
4 7 13 0
-4 -7 -13 0
3 5 8 0
-3 -5 -8 0
4 8 14 0
-4 -8 -14 0
3 6 9 0
-3 -6 -9 0
4 9 15 0
-4 -9 -15 0
3 7 10 0
-3 -7 -10 0
4 10 16 0
-4 -10 -16 0
3 8 11 0
-3 -8 -11 0
4 11 17 0
-4 -11 -17 0
3 9 12 0
-3 -9 -12 0
4 12 18 0
-4 -12 -18 0
1 2 13 0
-1 -2 -13 0
3 10 13 0
-3 -10 -13 0
2 14 0
-2 -14 0
3 11 14 0
-3 -11 -14 0
2 3 15 0
-2 -3 -15 0
3 12 15 0
-3 -12 -15 0
2 4 16 0
-2 -4 -16 0
3 13 16 0
-3 -13 -16 0
3 14 17 0
-3 -14 -17 0
2 6 18 0
-2 -6 -18 0
3 15 18 0
-3 -15 -18 0
