certificates/rado_a9_c30_N18.drat
3 -16 -18 0
-16 -17 -18 0
13 16 -18 0
-10 16 -18 0
16 -18 0
d 13 16 -18 0
-16 -18 0
d 3 -16 -18 0
-18 0
-3 4 -16 0
4 -16 0
d -3 4 -16 0
-4 -16 0
d -2 -4 -16 0
-16 0
3 -4 0
-4 0
10 0
2 0
12 0
-14 0
8 0
-3 0
6 0
13 0
15 0
5 0
9 0
7 0
1 0
17 0
11 0
0
